p cnf 91 377
13 -31 57 58 -73 78 79 0
13 -31 57 58 -73 79 0
21 22 69 70 -72 88 0
1 2 24 -32 56 0
-3 -16 -19 67 91 0
-3 -16 -23 67 91 0
4 5 -61 -78 -84 0
-4 -35 -63 82 -84 0
10 11 12 26 -28 0
10 11 12 -27 -28 0
12 58 -73 78 -79 0
-13 68 -85 90 -91 0
-15 -31 57 58 -80 0
19 23 -65 74 -75 0
21 22 23 69 88 0
42 45 46 60 83 0
1 10 -60 -83 0
2 3 -32 59 0
3 23 51 68 0
3 23 -51 -91 0
3 23 68 -91 0
3 -50 -51 -91 0
-3 -16 67 68 0
4 -16 -50 -51 0
4 19 -50 51 0
4 -35 -52 82 0
4 -68 -89 91 0
-4 78 -79 84 0
-5 -6 52 -63 0
-6 -35 36 62 0
7 8 -47 55 0
7 8 -48 55 0
7 9 45 55 0
-7 -8 -42 -60 0
-7 -8 -45 -83 0
-8 -9 -45 -55 0
-8 -39 -47 -64 0
9 40 45 46 0
10 21 -72 -77 0
10 -21 69 -77 0
13 49 67 -68 0
13 49 67 85 0
-13 68 -85 90 0
-14 -73 -78 80 0
-17 -18 -19 -40 0
18 39 47 64 0
19 23 -33 56 0
19 23 -33 -80 0
19 38 39 64 0
-19 25 30 36 0
-19 -27 -34 -57 0
20 22 53 -69 0
23 39 48 69 0
23 40 41 64 0
23 74 -75 -76 0
-27 -28 -33 34 0
-50 51 68 -89 0
52 62 82 84 0
1 2 24 -33 0
2 3 -32 -62 0
3 -50 68 89 0
-3 -19 50 67 0
4 -51 -67 -91 0
-4 -78 82 84 0
7 9 -47 55 0
-7 -8 -83 87 0
10 11 26 -31 0
12 57 58 -78 0
-14 -31 58 -76 0
-16 -19 -49 -89 0
19 -65 74 -75 0
-19 -68 -86 91 0
-19 -78 -79 -84 0
-20 -21 69 70 0
22 -41 -53 70 0
-35 37 -74 82 0
-35 -61 74 82 0
40 -43 46 -87 0
40 45 -60 -83 0
1 3 32 0
1 3 60 0
1 8 83 0
1 -21 88 0
1 -52 -74 0
-1 -70 -83 0
-1 -83 -88 0
2 3 59 0
2 5 -62 0
2 56 -61 0
-2 -6 61 0
-3 4 51 0
-3 4 89 0
-3 50 89 0
4 -6 61 0
4 19 69 0
4 -85 -91 0
-5 -6 52 0
-5 -63 78 0
6 -36 63 0
7 -43 45 0
7 60 -87 0
-7 -45 -83 0
8 -46 -47 0
-8 10 21 0
-8 48 55 0
-8 -69 88 0
-9 -40 43 0
-9 -40 -55 0
10 22 -72 0
10 27 57 0
-10 28 59 0
11 29 57 0
-11 -14 -15 0
12 -23 -27 0
12 34 57 0
12 57 78 0
-12 -29 73 0
-12 62 78 0
13 67 -68 0
13 85 -86 0
13 -86 -90 0
-13 -67 86 0
-13 -67 -91 0
-13 -68 -91 0
14 30 -57 0
15 -29 30 0
-15 -30 -58 0
16 49 51 0
17 18 54 0
17 19 39 0
17 44 77 0
-17 22 -44 0
-17 -23 25 0
-17 -72 -77 0
18 41 60 0
-18 -19 -64 0
-18 -23 -47 0
19 38 64 0
19 -51 81 0
-19 25 -74 0
-19 26 -28 0
-19 -38 54 0
-19 -48 -55 0
-19 51 81 0
-19 -51 -85 0
-19 -54 -72 0
-19 -60 -87 0
-19 65 80 0
-19 -69 -72 0
-19 79 84 0
-21 22 -88 0
22 23 54 0
22 -53 71 0
-22 41 -88 0
-22 -41 53 0
-22 -71 -88 0
23 26 28 0
23 27 56 0
23 28 59 0
23 39 88 0
-23 -49 -51 0
-23 65 -84 0
-24 28 -33 0
25 74 -76 0
-25 -26 -28 0
-25 -65 -74 0
-25 74 75 0
-29 -30 -73 0
32 -56 61 0
-32 35 -56 0
-36 -37 63 0
38 54 70 0
-38 -72 88 0
-39 -40 -43 0
-39 53 -55 0
-42 69 83 0
43 -44 77 0
-43 44 -71 0
-43 44 77 0
45 70 -83 0
46 47 -54 0
46 -47 64 0
49 67 -68 0
-49 -50 -68 0
50 66 67 0
-50 66 89 0
-50 90 -91 0
54 64 -81 0
-54 -70 71 0
-54 -70 72 0
-58 76 80 0
66 67 -90 0
66 -86 90 0
66 -86 -90 0
-66 -67 89 0
67 85 91 0
78 79 84 0
85 -86 91 0
10 11 -31 57 0
1 21 0
1 27 0
1 -33 0
1 45 0
1 83 0
-1 -2 0
-1 -24 0
-1 -59 0
-1 78 0
2 65 0
-2 -6 0
-2 35 0
-2 61 0
3 32 0
3 -37 0
3 40 0
3 -50 0
3 51 0
3 59 0
3 -62 0
-3 -4 0
-3 -56 0
-3 68 0
-3 -68 0
4 16 0
4 -33 0
4 -62 0
4 78 0
4 -85 0
4 89 0
4 -89 0
-4 -61 0
-4 -84 0
-4 91 0
5 7 0
5 52 0
5 -52 0
5 63 0
5 -82 0
-5 35 0
-5 82 0
6 35 0
6 -36 0
6 -62 0
6 63 0
6 -82 0
-6 37 0
-6 -65 0
-6 74 0
7 -48 0
7 64 0
-7 -45 0
-7 -46 0
-7 87 0
-7 -87 0
8 -10 0
8 -46 0
8 87 0
8 -88 0
-8 60 0
-8 -88 0
9 -47 0
9 -48 0
-9 -45 0
-9 -46 0
10 20 0
10 22 0
10 -27 0
10 44 0
10 -57 0
10 -70 0
10 83 0
-10 -12 0
-10 27 0
-10 -34 0
-10 -38 0
11 14 0
11 15 0
11 -19 0
11 -27 0
11 -33 0
11 -76 0
11 -80 0
-11 -76 0
12 13 0
12 15 0
12 26 0
12 -73 0
-12 31 0
-12 -57 0
-12 -78 0
-12 -79 0
13 -84 0
13 85 0
13 -86 0
13 -90 0
-13 -80 0
-13 88 0
-13 90 0
14 31 0
14 -58 0
14 78 0
14 -78 0
14 -79 0
-14 76 0
-14 78 0
15 25 0
15 31 0
15 -57 0
15 -58 0
-15 29 0
-15 80 0
16 50 0
16 -67 0
-16 -81 0
-16 -89 0
17 44 0
17 -44 0
17 81 0
-17 46 0
-17 53 0
18 42 0
18 69 0
-18 -39 0
-18 -41 0
-18 -69 0
-18 -77 0
-18 79 0
19 -30 0
19 32 0
19 -36 0
19 41 0
19 42 0
19 47 0
19 -50 0
19 -51 0
19 56 0
19 59 0
19 68 0
-19 -26 0
-19 -32 0
-19 -44 0
-19 52 0
-19 79 0
-19 81 0
-19 -81 0
-19 85 0
-19 86 0
-19 -89 0
20 -38 0
20 54 0
20 -54 0
-20 -22 0
-20 72 0
-20 77 0
21 23 0
21 -77 0
21 -88 0
-21 -69 0
22 41 0
22 -72 0
-22 -41 0
-22 -53 0
-22 -60 0
-22 -71 0
23 26 0
23 27 0
23 29 0
23 -30 0
23 34 0
23 -36 0
23 42 0
23 -51 0
23 59 0
23 60 0
23 64 0
23 75 0
-23 -28 0
